NAME 
ROWS
 N  OBJ
 L  R0      
 L  R1      
 L  R2      
 E  R3      
 E  R4      
 E  R5      
 E  R6      
 E  R7      
 E  R8      
 E  R9      
 E  R10     
 E  R11     
 E  R12     
COLUMNS
    MARKER    'MARKER'                 'INTORG'
    I0(8)     OBJ       102
    I0(8)     R0        -104
    I0(8)     R1        128
    I0(8)     R2        33
    I0(8)     R5        10
    I0(8)     R6        10
    I0(8)     R7        13
    I0(8)     R8        2
    I0(8)     R12       1
    I1(9)     OBJ       -70
    I1(9)     R0        194
    I1(9)     R1        -168
    I1(9)     R2        -61
    I1(9)     R3        -1
    I1(9)     R5        2
    I1(9)     R6        8
    I1(9)     R7        17
    I1(9)     R8        12
    I1(9)     R12       1
    I2(9)     OBJ       -165
    I2(9)     R0        23
    I2(9)     R1        128
    I2(9)     R2        24
    I2(9)     R3        7
    I2(9)     R4        11
    I2(9)     R6        8
    I2(9)     R7        13
    I2(9)     R8        19
    I2(9)     R12       1
    I3(8)     OBJ       99
    I3(8)     R0        -44
    I3(8)     R1        42
    I3(8)     R2        8
    I3(8)     R3        9
    I3(8)     R4        19
    I3(8)     R5        10
    I3(8)     R7        19
    I3(8)     R12       1
    I4(8)     OBJ       -94
    I4(8)     R0        1
    I4(8)     R1        95
    I4(8)     R2        170
    I4(8)     R4        5
    I4(8)     R6        4
    I4(8)     R7        17
    I4(8)     R8        5
    I4(8)     R12       1
    I5(9)     OBJ       -190
    I5(9)     R0        -6
    I5(9)     R1        22
    I5(9)     R2        -195
    I5(9)     R3        10
    I5(9)     R4        14
    I5(9)     R6        14
    I5(9)     R7        19
    I5(9)     R8        14
    I5(9)     R12       1
    MARKER    'MARKER'                 'INTEND'
    C6(11)    OBJ       2
    C6(11)    R0        8
    C6(11)    R1        7
    C6(11)    R2        9
    C6(11)    R3        8
    C6(11)    R4        18
    C6(11)    R5        3
    C6(11)    R6        11
    C6(11)    R7        19
    C6(11)    R8        1
    C6(11)    R10       19
    C6(11)    R11       18
    C7(9)     OBJ       -6
    C7(9)     R1        -6
    C7(9)     R2        3
    C7(9)     R3        16
    C7(9)     R4        3
    C7(9)     R5        19
    C7(9)     R6        7
    C7(9)     R7        14
    C7(9)     R10       15
    C7(9)     R11       1
    C8(9)     OBJ       2
    C8(9)     R0        -9
    C8(9)     R1        -2
    C8(9)     R2        2
    C8(9)     R3        4
    C8(9)     R4        7
    C8(9)     R6        19
    C8(9)     R8        16
    C8(9)     R10       10
    C8(9)     R11       18
    C9(9)     OBJ       -9
    C9(9)     R0        -2
    C9(9)     R1        -3
    C9(9)     R2        6
    C9(9)     R3        2
    C9(9)     R7        7
    C9(9)     R8        5
    C9(9)     R9        7
    C9(9)     R10       17
    C9(9)     R11       2
    C10(1)    R3        1
    C11(1)    R4        1
    C12(1)    R5        1
    C13(1)    R6        1
    C14(1)    R7        1
    C15(1)    R8        1
    C16(1)    R9        1
    C17(1)    R10       1
    C18(1)    R11       1
    C19(1)    R12       1
RHS
    RHS1      R0        -2.2941176470588236e+01
    RHS1      R1        2.7588235294117645e+01
    RHS1      R2        -3.5717647058823530e+02
    RHS1      R3        93
    RHS1      R4        77
    RHS1      R5        62
    RHS1      R6        93
    RHS1      R7        78
    RHS1      R8        80
    RHS1      R9        73
    RHS1      R10       93
    RHS1      R11       95
    RHS1      R12       2
BOUNDS
 UP BND1      I0(8)     2
 UP BND1      I1(9)     2
 UP BND1      I2(9)     2
 UP BND1      I3(8)     2
 UP BND1      I4(8)     2
 UP BND1      I5(9)     2
ENDATA
